NAME : tsp_384_sol.txt
COMMENT : OR-Tools Guided Local Search
TYPE : TOUR
DIMENSION : 141
COST : 9300
STATUS : ROUTING_SUCCESS
GAP : 0.00% (Reference Solution)
TOUR_SECTION
1
101
129
69
98
26
120
33
66
111
38
68
61
80
106
124
2
54
50
74
64
72
31
59
55
70
91
15
103
126
42
67
125
25
136
133
27
30
22
85
34
40
19
60
28
76
29
17
93
90
97
62
20
79
130
39
77
71
12
140
89
46
132
4
88
81
109
63
18
43
11
114
14
117
141
48
57
134
128
87
122
9
36
119
45
53
100
3
10
139
127
23
73
8
116
107
121
75
83
21
123
96
35
78
99
138
113
58
95
37
86
52
7
105
82
51
135
108
13
112
94
41
47
84
5
104
16
65
92
44
115
118
110
56
49
131
6
137
24
102
32
-1
